
--- Job new2.gms Start 11/12/22 12:46:23 41.1.0 1682d454 WEX-WEI x86 64bit/MS Windows
--- Applying:
    C:\GAMS\41\gmsprmNT.txt
--- GAMS Parameters defined
    Input C:\Users\14kra\OneDrive\Documents\GAMS\Studio\workspace\new2.gms
    PageSize 0
    ScrDir C:\Users\14kra\OneDrive\Documents\GAMS\Studio\workspace\225a\
    SysDir C:\GAMS\41\
    LogOption 3
    ErrMsg 1
    ErrorLog 99
    IDE 1
    LstTitleLeftAligned 1
Licensee: GAMS Demo license for kirill kuznetsov         G221112|0002CO-GEN
          timka, Greenland                                         DL079049
          C:\Users\14kra\OneDrive\Documents\GAMS\gamslice.txt
          14krabik14@gmail.com, kirill kuznetsov                           
          Demo license for demonstration and instructional purposes only
Processor information: 1 socket(s), 4 core(s), and 8 thread(s) available
GAMS 41.1.0   Copyright (C) 1987-2022 GAMS Development. All rights reserved
--- Starting compilation
--- new2.gms(57) 3 Mb
--- Starting execution: elapsed 0:00:00.012
--- new2.gms(54) 4 Mb
--- Generating LP model Fmax
--- new2.gms(56) 4 Mb
---   8 rows  5 columns  29 non-zeroes
--- Range statistics (absolute non-zero finite values)
--- RHS       [min, max] : [ 6.000E-01, 1.400E+02] - Zero values observed as well
--- Bound     [min, max] : [        NA,        NA] - Zero values observed as well
--- Matrix    [min, max] : [ 4.000E-02, 1.380E+01]
--- Executing CPLEX (Solvelink=2): elapsed 0:00:00.065

IBM ILOG CPLEX   41.1.0 1682d454 Oct 28, 2022          WEI x86 64bit/MS Window

--- *** This solver runs with a demo license. No commercial use.
--- GMO setup time: 0.00s
--- GMO memory 0.50 Mb (peak 0.50 Mb)
--- Dictionary memory 0.00 Mb
--- Cplex 22.1.0.0 link memory 0.00 Mb (peak 0.00 Mb)
--- Starting Cplex

Version identifier: 22.1.0.0 | 2022-03-09 | 1a383f8ce
CPXPARAM_Advance                                 0
CPXPARAM_Simplex_Display                         2
CPXPARAM_Threads                                 1
CPXPARAM_MIP_Display                             4
CPXPARAM_MIP_Pool_Capacity                       0
CPXPARAM_MIP_Tolerances_AbsMIPGap                0
Tried aggregator 1 time.
LP Presolve eliminated 6 rows and 2 columns.
Reduced LP has 2 rows, 4 columns, and 7 nonzeros.
Presolve time = 0.00 sec. (0.01 ticks)

Iteration      Dual Objective            In Variable           Out Variable
     1 sI           11.262869                x(milk)restrictionsA(cos slack
     2 sI            2.607424                x(sour)    goes to lower bound
     3 sI            2.399998             x(coctail)    goes to lower bound
     4 sI            0.000000               x(kefir)                x(milk)
     5             358.804444                x(sour) dailyHour(line1) slack

--- LP status (1): optimal.
--- Cplex Time: 0.02sec (det. 0.01 ticks)


Optimal solution found
Objective:          358.804444

--- Reading solution for model Fmax
*** Status: Normal completion
--- Job new2.gms Stop 11/12/22 12:46:23 elapsed 0:00:00.119
